
******************************************************************************
This program contains Ipopt, a library for large-scale nonlinear optimization.
 Ipopt is released as open source code under the Eclipse Public License (EPL).
         For more information visit http://projects.coin-or.org/Ipopt

This version of Ipopt was compiled from source code available at
    https://github.com/IDAES/Ipopt as part of the Institute for the Design of
    Advanced Energy Systems Process Systems Engineering Framework (IDAES PSE
    Framework) Copyright (c) 2018-2019. See https://github.com/IDAES/idaes-pse.

This version of Ipopt was compiled using HSL, a collection of Fortran codes
    for large-scale scientific computation.  All technical papers, sales and
    publicity material resulting from use of the HSL codes within IPOPT must
    contain the following acknowledgement:
        HSL, a collection of Fortran codes for large-scale scientific
        computation. See http://www.hsl.rl.ac.uk.
******************************************************************************

This is Ipopt version 3.13.2, running with linear solver ma27.

Number of nonzeros in equality constraint Jacobian...:      958
Number of nonzeros in inequality constraint Jacobian.:        0
Number of nonzeros in Lagrangian Hessian.............:      832

Total number of variables............................:      416
                     variables with only lower bounds:      128
                variables with lower and upper bounds:      224
                     variables with only upper bounds:        0
Total number of equality constraints.................:      415
Total number of inequality constraints...............:        0
        inequality constraints with only lower bounds:        0
   inequality constraints with lower and upper bounds:        0
        inequality constraints with only upper bounds:        0

iter    objective    inf_pr   inf_du lg(mu)  ||d||  lg(rg) alpha_du alpha_pr  ls
   0  0.0000000e+00 1.99e+00 5.26e-11  -1.0 0.00e+00    -  0.00e+00 0.00e+00   0
   1  2.6451267e+01 1.45e+00 1.18e+06  -1.0 9.23e+06    -  2.08e-02 3.94e-02h  2
   2  8.5091306e+01 1.28e+00 1.92e+06  -1.0 1.30e+07    -  2.15e-02 2.24e-02h  1
   3  8.5819073e+01 1.28e+00 1.92e+06  -1.0 2.18e+07    -  2.52e-02 1.62e-04h  1
   4  8.6025999e+01 1.28e+00 1.92e+06  -1.0 3.44e+07    -  1.24e-02 5.46e-05h  1
   5  9.2452927e+01 1.28e+00 2.35e+06  -1.0 3.52e+07    -  1.16e-02 1.50e-03h  3
   6  9.5179067e+01 1.28e+00 2.48e+06  -1.0 3.55e+07    -  1.34e-02 5.85e-04h  5
   7  9.5367525e+01 1.28e+00 2.48e+06  -1.0 3.58e+07    -  1.68e-02 3.98e-05h  9
   8  9.5460614e+01 1.28e+00 3.87e+06  -1.0 3.58e+07    -  1.81e-02 1.96e-05h 10
   9r 9.5460614e+01 1.28e+00 9.99e+02   0.1 0.00e+00    -  0.00e+00 2.74e-07R 16
iter    objective    inf_pr   inf_du lg(mu)  ||d||  lg(rg) alpha_du alpha_pr  ls
  10r 9.5460734e+01 1.26e+00 9.95e+02   0.1 5.27e+02    -  4.43e-03 6.99e-03f  1
  11r 9.5460809e+01 1.24e+00 9.82e+02   0.1 1.09e+02    -  5.13e-02 1.04e-02f  1
  12r 9.5461254e+01 1.13e+00 9.16e+02   0.1 1.14e+02    -  9.47e-02 6.69e-02f  1
  13r 9.5461254e+01 1.13e+00 9.99e+02   0.1 0.00e+00    -  0.00e+00 7.60e-08R  2
  14r 9.5461229e+01 2.49e+00 9.63e+02   0.1 1.24e+02    -  7.66e-02 3.57e-02f  1
  15r 9.5461254e+01 2.46e+00 9.49e+02   0.1 2.84e+02    -  3.01e-02 1.52e-02f  1
  16r 9.5460998e+01 2.42e+00 9.35e+02   0.1 3.46e+02    -  8.91e-03 1.43e-02f  1
  17r 9.5459294e+01 2.33e+00 1.00e+03   0.1 1.15e+03    -  5.39e-03 3.87e-02f  1
  18r 9.5457968e+01 2.26e+00 9.62e+02   0.1 1.26e+03    -  3.17e-02 2.79e-02f  1
  19r 9.5453195e+01 2.02e+00 1.09e+03   0.1 1.17e+03    -  5.09e-02 1.07e-01f  1
iter    objective    inf_pr   inf_du lg(mu)  ||d||  lg(rg) alpha_du alpha_pr  ls
  20r 9.5452793e+01 1.92e+00 1.07e+03   0.1 2.18e+02    -  8.08e-03 5.00e-02f  1
  21r 9.5452793e+01 1.86e+00 1.04e+03   0.1 3.36e+01   0.0 2.52e-01 2.73e-02f  1
  22r 9.5452793e+01 1.75e+00 9.80e+02   0.1 1.09e+02  -0.5 2.13e-01 6.16e-02f  1
  23r 9.5452793e+01 1.35e+00 7.62e+02   0.1 1.74e+00   2.7 4.65e-01 2.26e-01f  1
  24r 9.5452793e+01 1.31e+00 7.39e+02   0.1 1.46e+00   2.2 1.65e-01 3.05e-02f  1
  25r 9.5452793e+01 1.07e+00 4.85e+02   0.1 1.30e+00   2.6 5.90e-01 3.47e-01f  1
  26r 9.5452793e+01 1.07e+00 4.54e+02   0.1 8.09e-01   3.0 1.26e-01 2.53e-01h  1
  27r 9.5452793e+01 1.06e+00 4.38e+02   0.1 1.19e+00   2.6 1.60e-01 3.46e-02f  1
  28r 9.5452793e+01 1.05e+00 5.33e+02   0.1 5.58e-01   3.0 2.58e-01 9.40e-01f  1
  29r 9.5452793e+01 1.04e+00 4.49e+02   0.1 1.38e-01   3.4 9.90e-01 4.38e-01f  1
iter    objective    inf_pr   inf_du lg(mu)  ||d||  lg(rg) alpha_du alpha_pr  ls
  30r 9.5452793e+01 1.03e+00 5.16e+02   0.1 5.58e-01   2.9 7.15e-01 2.18e-01f  1
  31r 9.5452793e+01 1.03e+00 4.55e+02   0.1 1.50e-01   3.4 9.90e-01 2.46e-01f  1
  32r 9.5452793e+01 1.02e+00 3.81e+02   0.1 1.05e+00   2.9 2.95e-01 2.02e-01f  1
  33r 9.5452793e+01 1.01e+00 3.58e+02   0.1 1.21e-01   3.3 9.91e-01 3.37e-01f  1
  34  9.6071658e+01 1.01e+00 4.77e+01  -1.0 1.70e+07    -  3.01e-02 1.46e-04h  1
  35r 9.6071658e+01 1.01e+00 9.99e+02   0.0 0.00e+00    -  0.00e+00 3.63e-07R  3
  36r 9.6073179e+01 9.90e-01 9.69e+02   0.0 5.90e+02    -  3.92e-02 2.96e-02f  1
  37r 9.6073179e+01 9.71e-01 8.49e+02   0.0 2.25e+00   2.0 1.79e-01 1.62e-01f  1
  38r 9.6073179e+01 9.39e-01 7.41e+02   0.0 1.21e+00   2.4 2.76e-01 2.05e-01f  1
  39r 9.6073179e+01 9.01e-01 5.07e+02   0.0 4.32e-01   2.9 6.62e-01 5.38e-01f  1
iter    objective    inf_pr   inf_du lg(mu)  ||d||  lg(rg) alpha_du alpha_pr  ls
  40  9.6185994e+01 9.01e-01 8.76e+02  -1.0 1.72e+07    -  3.03e-02 2.76e-05h  1
  41  9.6362885e+01 9.01e-01 2.78e+05  -1.0 7.35e+07    -  1.08e-02 3.36e-05h  1
  42  9.9735150e+01 9.01e-01 8.88e+05  -1.0 7.42e+07    -  1.07e-02 5.69e-04h  4
  43  1.0086731e+02 9.01e-01 2.55e+06  -1.0 7.46e+07    -  1.16e-02 1.77e-04h  6
  44  1.0100674e+02 9.01e-01 7.80e+06  -1.0 7.47e+07    -  1.32e-02 2.14e-05h  9
  45r 1.0100674e+02 9.01e-01 1.00e+03  -0.0 0.00e+00    -  0.00e+00 3.03e-07R 15
  46r 1.0100790e+02 8.81e-01 9.83e+02  -0.0 6.70e+02    -  1.70e-02 1.92e-02f  1
  47r 1.0100834e+02 8.70e-01 9.77e+02  -0.0 1.37e+03    -  6.04e-03 5.05e-03f  1
  48r 1.0100834e+02 8.59e-01 9.35e+02  -0.0 2.47e+00   2.0 1.45e-01 5.32e-02f  1
  49r 1.0100834e+02 8.48e-01 9.12e+02  -0.0 9.92e+00   1.5 5.97e-02 3.45e-02f  1
iter    objective    inf_pr   inf_du lg(mu)  ||d||  lg(rg) alpha_du alpha_pr  ls
  50r 1.0100834e+02 8.43e-01 9.00e+02  -0.0 2.70e+00   1.9 3.79e-01 2.77e-02f  1
  51r 1.0100834e+02 8.31e-01 8.25e+02  -0.0 9.78e-01   1.5 7.62e-02 8.39e-02f  1
  52r 1.0100834e+02 2.15e+00 5.86e+02  -0.0 2.87e-01   2.8 7.62e-01 5.54e-01f  1
  53r 1.0100834e+02 2.14e+00 6.37e+02  -0.0 1.33e+01   2.3 4.74e-03 2.30e-03f  1
  54r 1.0100834e+02 2.12e+00 1.05e+03  -0.0 1.87e+00   2.7 4.75e-04 5.56e-02f  1
  55r 1.0100834e+02 8.07e-01 2.12e+04  -0.0 1.87e+00   3.2 6.36e-02 3.53e-02h  1
  56r 1.0100834e+02 8.07e-01 9.99e+02  -0.1 0.00e+00    -  0.00e+00 2.69e-07R  4
  57r 1.0100841e+02 2.12e+00 9.96e+02  -0.1 1.80e+02    -  2.07e-02 3.05e-03f  1
  58r 1.0100901e+02 9.06e-01 9.70e+02  -0.1 1.98e+02    -  2.35e-02 2.59e-02f  1
  59r 1.0100923e+02 9.02e-01 9.66e+02  -0.1 9.04e+02    -  9.67e-03 4.11e-03f  1
iter    objective    inf_pr   inf_du lg(mu)  ||d||  lg(rg) alpha_du alpha_pr  ls
  60r 1.0100883e+02 8.96e-01 9.61e+02  -0.1 3.90e+03    -  1.00e-02 5.11e-03f  1
  61r 1.0100846e+02 8.85e-01 9.50e+02  -0.1 2.48e+03    -  2.39e-02 1.15e-02f  1
  62r 1.0100846e+02 8.82e-01 9.46e+02  -0.1 2.85e+03    -  4.98e-03 4.15e-03f  1
  63r 1.0100865e+02 8.73e-01 9.37e+02  -0.1 8.17e+02    -  6.32e-03 1.05e-02f  1
  64r 1.0100865e+02 8.71e-01 9.36e+02  -0.1 4.48e+00   2.0 1.03e-01 1.59e-03f  1
  65r 1.0100882e+02 8.66e-01 9.32e+02  -0.1 4.83e+02    -  1.91e-03 5.78e-03f  1
  66r 1.0100922e+02 8.52e-01 9.14e+02  -0.1 4.02e+02    -  1.02e-01 1.68e-02f  1
  67r 1.0100951e+02 8.34e-01 9.07e+02  -0.1 2.08e+02    -  1.51e-01 2.12e-02f  1
  68r 1.0101153e+02 8.12e-01 9.54e+02  -0.1 2.18e+03    -  7.00e-02 2.66e-02f  1
  69r 1.0101615e+02 7.55e-01 7.92e+02  -0.1 1.24e+03    -  1.38e-03 1.06e-01f  1
iter    objective    inf_pr   inf_du lg(mu)  ||d||  lg(rg) alpha_du alpha_pr  ls
  70r 1.0101391e+02 1.41e+00 7.42e+02  -0.1 1.30e+03    -  8.60e-02 6.24e-02f  1
  71r 1.0101391e+02 9.90e-01 6.22e+02  -0.1 1.41e+00   1.5 7.85e-01 2.96e-01f  1
  72r 1.0101391e+02 2.13e+00 3.81e+02  -0.1 3.04e+00   1.0 9.90e-01 6.39e-01f  1
  73r 1.0101391e+02 1.07e+00 1.20e+03  -0.1 1.23e+01   0.6 4.20e-03 3.59e-02f  1
  74r 1.0101391e+02 9.75e-01 1.09e+03  -0.1 3.23e+01   0.1 4.86e-01 8.85e-02f  1
  75r 1.0101391e+02 9.72e-01 1.09e+03  -0.1 2.92e+01  -0.4 4.92e-02 2.84e-03h  1
  76r 1.0101391e+02 9.65e-01 1.08e+03  -0.1 9.44e+01  -0.9 9.89e-03 7.00e-03f  1
  77r 1.0101391e+02 8.27e-01 9.70e+02  -0.1 5.02e+00  -0.4 1.74e-01 1.06e-01h  1
  78r 1.0101391e+02 7.49e-01 7.94e+02  -0.1 4.06e+00  -0.9 2.50e-01 1.85e-01h  1
  79r 1.0101391e+02 9.73e-01 5.52e+02  -0.1 1.74e+00  -0.5 5.59e-01 5.25e-01H  1
iter    objective    inf_pr   inf_du lg(mu)  ||d||  lg(rg) alpha_du alpha_pr  ls
  80r 1.0101391e+02 7.49e-01 5.55e+02  -0.1 3.95e+00  -1.0 2.82e-03 1.92e-01h  1
  81r 1.0101391e+02 7.48e-01 6.06e+02  -0.1 9.65e+00  -1.4 1.60e-01 2.72e-01f  1
  82r 1.0101391e+02 7.48e-01 1.58e+03  -0.1 5.86e+00  -1.9 1.17e-01 3.77e-01F  1
  83r 1.0101391e+02 7.48e-01 1.29e+03  -0.1 1.63e+01  -0.6 2.12e-01 1.64e-01h  1
  84r 1.0101391e+02 7.48e-01 1.22e+03  -0.1 3.13e+00  -0.2 5.33e-03 8.52e-02h  2
  85r 1.0101391e+02 7.48e-01 1.34e+03  -0.1 1.64e+00   3.0 1.83e-01 2.01e-02h  5
  86r 1.0101391e+02 7.48e-01 2.30e+03  -0.1 5.66e-02   3.4 9.90e-01 1.25e-01h  4
  87r 1.0101391e+02 7.48e-01 3.15e+03  -0.1 7.31e-01   2.9 5.97e-02 7.01e-03H  1
  88r 1.0101391e+02 7.48e-01 5.92e+03  -0.1 2.57e-02   2.4 1.10e-01 1.25e-01f  4
  89r 1.0101391e+02 7.48e-01 9.55e+03  -0.1 7.77e-02   3.8 9.13e-01 2.73e-02f  6
iter    objective    inf_pr   inf_du lg(mu)  ||d||  lg(rg) alpha_du alpha_pr  ls
  90r 1.0101391e+02 7.48e-01 1.02e+04  -0.1 1.19e-01   3.3 9.99e-03 3.63e-03f  9
  91r 1.0101391e+02 7.48e-01 1.32e+04  -0.1 3.22e-02   4.6 4.97e-01 6.45e-03h  8
  92r 1.0101391e+02 7.48e-01 1.40e+04  -0.1 5.14e-02   4.1 2.69e-01 1.95e-03h 10
  93r 1.0101391e+02 7.48e-01 1.93e+04  -0.1 5.32e-02   4.6 6.76e-01 1.95e-03h 10
  94r 1.0101391e+02 7.48e-01 7.17e+04  -0.1 1.02e-01   4.1 6.01e-02 4.32e-03H  1
  95r 1.0101391e+02 7.48e-01 7.29e+04  -0.1 2.30e+00   3.6 1.52e-03 2.44e-04h  1
  96r 1.0101391e+02 7.48e-01 7.98e+04  -0.1 1.69e+00   4.0 4.41e-05 4.88e-04f  5
  97r 1.0101391e+02 7.48e-01 1.17e+05  -0.1 3.42e-01   4.5 7.82e-02 1.68e-03f  5
  98r 1.0101391e+02 7.48e-01 1.38e+05  -0.1 2.70e-01   4.9 4.37e-03 1.08e-04H  1
  99r 1.0101391e+02 7.48e-01 3.33e+05  -0.1 9.47e-02   5.3 4.14e-04 4.41e-03H  1
iter    objective    inf_pr   inf_du lg(mu)  ||d||  lg(rg) alpha_du alpha_pr  ls
 100r 1.0101391e+02 7.48e-01 4.05e+05  -0.1 1.42e-01   5.7 1.47e-02 7.14e-03h  1
 101r 1.0101391e+02 7.48e-01 4.96e+05  -0.1 5.01e-02   6.2 7.17e-03 4.74e-03f  4
 102r 1.0101391e+02 7.48e-01 1.50e+06  -0.1 1.71e-02   6.6 3.70e-02 4.27e-03f  6
 103r 1.0101391e+02 7.48e-01 1.70e+06  -0.1 2.09e-02   7.0 2.59e-02 4.36e-04f  8
 104r 1.0101391e+02 7.48e-01 2.78e+06  -0.1 5.02e-01   6.5 5.07e-04 3.64e-05H  1
 105r 1.0101391e+02 7.48e-01 3.73e+06  -0.1 6.76e-02   7.0 1.33e-03 6.15e-04f  2
 106r 1.0101391e+02 7.48e-01 4.74e+06  -0.1 2.23e-02   7.4 1.34e-02 4.00e-04f  9
 107r 1.0101391e+02 7.48e-01 5.28e+06  -0.1 8.79e-03   7.8 2.96e-02 1.87e-04f 10
 108r 1.0101391e+02 7.48e-01 6.63e+06  -0.1 4.66e-02   7.3 6.01e-03 9.11e-05f  9
 109r 1.0101391e+02 7.48e-01 7.84e+06  -0.1 1.52e-02   7.8 1.70e-02 6.01e-05f 11
iter    objective    inf_pr   inf_du lg(mu)  ||d||  lg(rg) alpha_du alpha_pr  ls
 110r 1.0101391e+02 7.48e-01 1.75e+07  -0.1 1.81e-01   7.3 3.97e-04 1.99e-05H  1
 111r 1.0101391e+02 2.13e+00 1.98e+04  -0.1 9.63e-02   7.7 1.15e-04 2.99e-03f  2
 112r 1.0101391e+02 7.48e-01 2.49e+06  -0.1 8.60e-01   7.2 5.65e-04 1.03e-03f  2
 113r 1.0101391e+02 7.48e-01 2.47e+06  -0.1 2.83e-02   6.8 1.39e-01 5.23e-03h  2
 114r 1.0101391e+02 7.48e-01 2.44e+06  -0.1 4.86e-02   6.3 1.49e-02 1.24e-02f  2
 115r 1.0101391e+02 7.48e-01 2.43e+06  -0.1 6.52e-02   5.8 1.06e-01 6.26e-03h  2
 116r 1.0101391e+02 7.48e-01 2.27e+06  -0.1 1.23e-01   5.3 1.70e-02 6.42e-02h  1
 117r 1.0101391e+02 7.48e-01 2.21e+06  -0.1 1.10e-01   4.9 1.87e-02 1.00e+00h  1
 118r 1.0101391e+02 7.48e-01 1.13e+06  -0.1 6.71e-04   7.1 1.00e+00 1.00e+00h  1
 119r 1.0101391e+02 7.48e-01 5.69e+04  -0.1 2.20e-04   6.6 1.00e+00 1.00e+00f  1
iter    objective    inf_pr   inf_du lg(mu)  ||d||  lg(rg) alpha_du alpha_pr  ls
 120r 1.0101391e+02 7.48e-01 1.81e+04  -0.1 7.85e-04   6.1 1.00e+00 1.00e+00f  1
 121r 1.0101391e+02 7.48e-01 1.05e+05  -0.1 2.10e-03   5.7 5.60e-02 2.63e-01F  1
 122r 1.0101391e+02 7.48e-01 9.48e+04  -0.1 2.84e-02   5.2 1.00e+00 9.29e-02h  1
 123r 1.0101391e+02 7.48e-01 3.49e+04  -0.1 3.30e-02   4.7 1.00e+00 5.00e-01h  2
 124r 1.0101391e+02 7.48e-01 2.36e+03  -0.1 3.30e-02   4.2 1.00e+00 5.70e-01f  1
 125r 1.0101391e+02 7.48e-01 3.29e+03  -0.1 1.12e-01   3.8 6.79e-01 6.48e-02F  1
 126r 1.0101391e+02 7.48e-01 3.17e+03  -0.1 1.53e-01   3.3 1.00e+00 3.93e-02f  1
 127r 1.0101391e+02 7.48e-01 3.08e+03  -0.1 2.12e-01   2.8 5.51e-01 7.01e-02F  1
 128r 1.0101391e+02 7.48e-01 3.57e+03  -0.1 1.50e-02   2.3 1.57e-01 6.43e-02F  1
 129r 1.0101391e+02 7.48e-01 3.51e+03  -0.1 7.17e-02   1.8 1.00e+00 1.69e-02h  1
iter    objective    inf_pr   inf_du lg(mu)  ||d||  lg(rg) alpha_du alpha_pr  ls
 130r 1.0101391e+02 7.48e-01 3.68e+03  -0.1 8.16e-02   1.4 1.55e-01 6.70e-02F  1
 131r 1.0101391e+02 7.48e-01 3.85e+03  -0.1 3.46e-01   0.9 1.39e-03 1.46e-01F  1
 132r 1.0101391e+02 7.48e-01 3.67e+03  -0.1 3.86e-01   0.4 1.00e+00 4.67e-02h  1
 133r 1.0101391e+02 7.48e-01 3.27e+03  -0.1 4.75e-01  -0.1 2.16e-01 9.18e-02h  1
 134r 1.0101391e+02 7.48e-01 2.82e+03  -0.1 1.78e+00  -0.5 7.78e-03 1.21e-01h  4
 135r 1.0101391e+02 7.48e-01 2.80e+03  -0.1 7.31e-01  -0.1 2.04e-01 9.05e-03H  1
 136r 1.0101391e+02 7.48e-01 2.75e+03  -0.1 4.52e+00  -0.6 1.58e-01 2.41e-02F  1
 137r 1.0101391e+02 9.42e-01 4.56e+03  -0.1 3.25e-01  -0.2 1.61e-03 3.62e-01F  1
 138r 1.0101391e+02 8.41e-01 4.10e+03  -0.1 1.35e+00  -0.6 1.00e+00 1.08e-01h  1
 139r 1.0101391e+02 8.38e-01 6.00e+03  -0.1 3.30e+00  -1.1 1.70e-01 3.19e-03h  1
iter    objective    inf_pr   inf_du lg(mu)  ||d||  lg(rg) alpha_du alpha_pr  ls
 140r 1.0101391e+02 7.48e-01 3.49e+03  -0.1 3.25e+00  -0.7 1.65e-03 1.42e-01h  2
 141r 1.0101391e+02 7.48e-01 3.31e+03  -0.1 4.16e-01  -0.3 1.00e+00 3.12e-02h  6
 142r 1.0101391e+02 7.48e-01 2.63e+03  -0.1 2.04e+00  -0.7 3.05e-01 3.72e-02H  1
 143r 1.0101391e+02 7.57e-01 1.80e+03  -0.1 1.13e+01  -0.3 7.92e-02 1.13e-02H  1
 144r 1.0101391e+02 7.51e-01 1.79e+03  -0.1 5.39e+00  -0.8 2.38e-02 8.15e-03h  2
 145r 1.0101391e+02 9.25e-01 3.54e+03  -0.1 3.27e+01  -0.4 1.26e-02 1.38e-01F  1
 146r 1.0101391e+02 9.21e-01 4.73e+03  -0.1 2.72e+00  -0.8 1.00e+00 4.38e-03h  1
 147r 1.0101391e+02 7.48e-01 1.36e+03  -0.1 2.08e+00  -0.4 4.09e-02 1.75e-01h  1
 148r 1.0101391e+02 7.48e-01 1.14e+03  -0.1 2.12e-01   0.0 8.76e-01 5.00e-01h  2
 149r 1.0101391e+02 7.48e-01 1.14e+03  -0.1 5.29e-01   3.1 9.96e-01 6.16e-01F  1
iter    objective    inf_pr   inf_du lg(mu)  ||d||  lg(rg) alpha_du alpha_pr  ls
 150r 1.0101391e+02 7.48e-01 2.10e+03  -0.1 3.77e-02   2.7 7.35e-01 2.05e-01h  1
 151r 1.0101391e+02 7.48e-01 2.26e+03  -0.1 1.04e-01   2.2 2.09e-02 3.12e-02f  6
 152r 1.0101391e+02 7.48e-01 2.78e+03  -0.1 4.85e-02   3.5 1.00e+00 3.12e-02f  6
 153r 1.0101391e+02 7.48e-01 3.00e+03  -0.1 1.04e-02   3.0 3.45e-01 1.56e-02f  7
 154r 1.0101391e+02 7.48e-01 3.24e+03  -0.1 5.92e-02   3.5 1.00e+00 7.81e-03h  8
 155r 1.0101391e+02 7.48e-01 3.83e+03  -0.1 2.18e-02   3.0 2.09e-01 7.81e-03h  8
 156r 1.0101391e+02 7.48e-01 5.27e+03  -0.1 9.49e-02   3.4 1.00e+00 3.91e-03h  9
 157r 1.0101391e+02 7.48e-01 1.89e+04  -0.1 6.07e-02   2.9 1.37e-01 1.06e-02H  1
 158r 1.0101391e+02 7.48e-01 2.63e+04  -0.1 7.27e-02   2.5 3.94e-01 2.47e-02f  4
 159r 1.0101391e+02 7.48e-01 2.83e+04  -0.1 1.08e-01   2.0 2.15e-03 3.02e-03f  7
iter    objective    inf_pr   inf_du lg(mu)  ||d||  lg(rg) alpha_du alpha_pr  ls
 160r 1.0101391e+02 7.48e-01 1.07e+05  -0.1 1.68e-01   4.2 9.90e-02 3.11e-03f  7
 161r 1.0101391e+02 7.48e-01 1.42e+05  -0.1 6.06e-02   5.5 4.02e-02 4.16e-04f  9
 162r 1.0101391e+02 7.48e-01 2.99e+05  -0.1 6.28e-01   5.1 1.77e-03 6.20e-05H  1
 163r 1.0101391e+02 7.48e-01 5.88e+05  -0.1 1.15e+00   5.5 6.18e-05 1.65e-04H  1
 164r 1.0101391e+02 7.48e-01 6.96e+05  -0.1 4.16e-01   5.9 2.42e-04 8.05e-04f  4
 165r 1.0101391e+02 7.48e-01 7.81e+05  -0.1 6.42e-02   6.3 1.22e-02 1.14e-03f  6
 166r 1.0101391e+02 7.48e-01 8.30e+05  -0.1 3.32e-02   6.8 1.18e-02 6.71e-04f  8
 167r 1.0101391e+02 7.48e-01 8.88e+05  -0.1 1.18e-01   6.3 2.99e-03 3.00e-04f  7
 168r 1.0101391e+02 7.48e-01 1.88e+06  -0.1 2.95e-02   6.7 2.25e-03 5.89e-04f  8
 169r 1.0101391e+02 2.13e+00 3.12e+04  -0.1 2.37e-02   7.1 1.75e-01 9.24e-02f  1
iter    objective    inf_pr   inf_du lg(mu)  ||d||  lg(rg) alpha_du alpha_pr  ls
 170r 1.0101391e+02 7.48e-01 5.82e+06  -0.1 8.45e-01   6.7 2.55e-03 1.84e-04h  1
 171r 1.0101391e+02 7.48e-01 5.72e+06  -0.1 7.63e-02   6.2 1.04e-02 2.05e-02h  1
 172r 1.0101391e+02 7.48e-01 5.64e+06  -0.1 8.53e-02   5.7 5.51e-04 1.56e-02h  1
 173r 1.0101391e+02 7.48e-01 5.61e+06  -0.1 1.49e-01   5.2 1.22e-01 5.46e-03h  1
 174r 1.0101391e+02 7.48e-01 4.55e+06  -0.1 1.58e-01   4.8 1.44e-02 1.74e-01h  1
 175r 1.0101391e+02 7.48e-01 4.01e+05  -0.1 1.14e-01   4.3 1.11e-01 9.09e-01h  1
 176r 1.0101391e+02 7.48e-01 5.76e+05  -0.1 1.73e-03   6.5 6.05e-01 1.25e-01f  4
 177r 1.0101391e+02 7.48e-01 6.13e+05  -0.1 5.28e-02   6.0 6.17e-04 3.55e-05H  1
 178r 1.0101391e+02 7.48e-01 6.34e+05  -0.1 2.79e-03   6.5 2.00e-01 3.12e-02f  6
 179r 1.0101391e+02 7.48e-01 7.58e+05  -0.1 3.58e-03   6.9 1.00e+00 3.12e-02f  6
iter    objective    inf_pr   inf_du lg(mu)  ||d||  lg(rg) alpha_du alpha_pr  ls
 180r 1.0101391e+02 7.48e-01 2.00e+06  -0.1 3.69e-03   6.4 4.94e-03 2.53e-03H  1
 181r 1.0101391e+02 7.48e-01 7.45e+06  -0.1 3.35e-03   6.8 3.11e-01 9.96e-02f  3
 182r 1.0101391e+02 7.48e-01 1.32e+07  -0.1 5.56e-03   7.3 1.18e-01 8.08e-03f  6
 183r 1.0101391e+02 7.48e-01 3.09e+07  -0.1 2.73e-03   7.7 2.39e-03 2.59e-04H  1
 184r 1.0101391e+02 7.48e-01 3.50e+07  -0.1 1.76e-03   8.1 1.04e-01 1.50e-02f  7
 185r 1.0101391e+02 7.48e-01 3.73e+07  -0.1 1.32e-03   8.5 2.34e-01 7.81e-03f  8
 186r 1.0101391e+02 2.17e+00 2.06e+05  -0.1 2.93e-03   8.1 1.40e-01 5.10e-01f  1
 187r 1.0101391e+02 7.48e-01 1.25e+07  -0.1 9.48e-01   7.6 7.54e-05 3.95e-03f  1
 188r 1.0101391e+02 7.48e-01 1.09e+07  -0.1 1.24e-02   7.1 2.61e-02 1.25e-01f  1
 189r 1.0101391e+02 7.48e-01 9.65e+06  -0.1 1.39e-02   6.6 1.92e-01 1.08e-01h  1
iter    objective    inf_pr   inf_du lg(mu)  ||d||  lg(rg) alpha_du alpha_pr  ls
 190r 1.0101391e+02 7.48e-01 5.28e+06  -0.1 2.20e-02   6.2 1.31e-01 4.25e-01h  1
 191r 1.0101391e+02 7.48e-01 1.01e+06  -0.1 1.20e-02   5.7 1.00e+00 7.72e-01h  1
 192r 1.0101391e+02 7.48e-01 7.48e+04  -0.1 2.68e-03   5.2 1.00e+00 1.00e+00f  1
 193r 1.0101391e+02 7.48e-01 2.41e+04  -0.1 3.12e-03   5.6 1.00e+00 1.00e+00f  1
 194r 1.0101391e+02 7.48e-01 2.24e+04  -0.1 5.87e-03   5.2 1.00e+00 8.99e-01f  1
 195r 1.0101391e+02 2.17e+00 1.48e+03  -0.1 4.16e-02   4.7 1.00e+00 5.57e-01f  1
 196r 1.0101391e+02 7.48e-01 2.44e+04  -0.1 1.36e+00   4.2 4.08e-03 5.88e-02f  1
 197r 1.0101391e+02 7.48e-01 2.29e+04  -0.1 2.88e-01   3.7 1.00e+00 6.04e-02f  1
 198r 1.0101391e+02 7.48e-01 2.25e+04  -0.1 1.62e-01   3.2 1.98e-02 2.04e-02H  1
 199r 1.0101391e+02 7.48e-01 2.24e+04  -0.1 2.44e-01   2.8 1.00e+00 2.61e-03h  1
iter    objective    inf_pr   inf_du lg(mu)  ||d||  lg(rg) alpha_du alpha_pr  ls
 200r 1.0101391e+02 7.48e-01 7.42e+04  -0.1 4.38e-02   2.3 4.80e-02 2.07e-01h  1
 201r 1.0101391e+02 7.48e-01 6.64e+04  -0.1 1.59e-01   1.8 1.00e+00 1.25e-01h  4
 202r 1.0101391e+02 7.48e-01 7.31e+04  -0.1 1.52e-01   1.3 6.91e-02 1.59e-02H  1
 203r 1.0101391e+02 7.48e-01 7.29e+04  -0.1 9.93e-01   0.9 1.56e-01 3.56e-03h  2
 204r 1.0101391e+02 7.48e-01 7.24e+04  -0.1 7.17e-01   0.4 3.53e-02 1.25e-01h  4
 205r 1.0101391e+02 7.48e-01 7.18e+04  -0.1 9.87e-01  -0.1 1.42e-01 9.19e-03H  1
 206r 1.0101391e+02 7.48e-01 8.85e+04  -0.1 2.02e+00  -0.6 1.54e-02 6.25e-02h  5
 207r 1.0101391e+02 7.48e-01 8.82e+04  -0.1 1.05e+00  -0.1 1.71e-01 3.64e-03H  1
 208r 1.0101391e+02 7.48e-01 9.96e+04  -0.1 4.17e+00  -0.6 1.45e-02 1.56e-02f  7
 209r 1.0101391e+02 7.48e-01 9.66e+04  -0.1 4.54e-01  -0.2 1.00e+00 3.92e-02h  1
iter    objective    inf_pr   inf_du lg(mu)  ||d||  lg(rg) alpha_du alpha_pr  ls
 210r 1.0101391e+02 7.48e-01 1.14e+05  -0.1 5.30e+00  -0.7 9.14e-02 6.34e-03h  3
 211r 1.0101391e+02 7.48e-01 3.62e+05  -0.1 9.96e+00  -0.3 1.95e-01 6.99e-03h  7
 212r 1.0101391e+02 7.48e-01 4.34e+05  -0.1 3.31e+00  -0.7 3.54e-01 7.81e-03h  8
 213r 1.0101391e+02 7.48e-01 5.79e+05  -0.1 1.68e+00  -0.3 1.00e+00 7.81e-03h  8
 214r 1.0101391e+02 7.48e-01 1.14e+06  -0.1 5.78e+00  -0.8 1.03e-01 3.15e-03h  9
 215r 1.0101391e+02 7.48e-01 1.30e+06  -0.1 1.18e+00  -0.4 1.00e+00 1.95e-03h 10
 216r 1.0101391e+02 7.48e-01 1.77e+06  -0.1 1.51e+01  -0.8 1.05e-01 1.17e-03h  9
 217r 1.0101391e+02 7.48e-01 2.03e+06  -0.1 1.02e+00  -0.4 1.00e+00 9.77e-04h 11
 218r 1.0101391e+02 7.48e-01 3.67e+06  -0.1 1.00e+00   0.0 1.05e-01 9.77e-04h 11
 219r 1.0101391e+02 7.48e-01 4.95e+06  -0.1 9.16e-01  -0.5 1.00e+00 4.88e-04h 12
iter    objective    inf_pr   inf_du lg(mu)  ||d||  lg(rg) alpha_du alpha_pr  ls
 220r 1.0101391e+02 2.15e+00 2.31e+03  -0.1 7.21e-01  -0.0 1.08e-01 1.00e+00w  1
 221r 1.0101391e+02 7.48e-01 1.81e+04  -0.1 1.28e+00   3.1 2.97e-01 1.35e-02w  1
 222r 1.0101391e+02 2.13e+00 8.55e+02  -0.1 1.99e-01   4.4 3.53e-03 1.20e-01w  1
 223r 1.0101391e+02 7.48e-01 5.73e+06  -0.1 2.07e+00   4.0 1.08e-01 2.44e-04h 12
 224r 1.0101391e+02 7.48e-01 6.75e+06  -0.1 8.99e-02   3.5 1.02e-01 2.44e-04h 13
 225r 1.0101391e+02 7.48e-01 8.84e+06  -0.1 1.33e-01   3.0 1.00e+00 9.77e-04h 11
 226r 1.0101391e+02 7.48e-01 1.61e+07  -0.1 1.34e-01   2.0 9.79e-02 6.10e-05h 15
 227r 1.0101391e+02 7.48e-01 1.52e+07  -0.1 3.95e-01   1.1 1.00e+00 6.10e-05h 15
 228r 1.0101391e+02 7.48e-01 1.45e+07  -0.1 4.43e-01   0.1 1.33e-01 3.05e-05h 16
 229r 1.0101391e+02 7.48e-01 8.61e+14  -0.1 8.79e+00  -0.8 4.01e-01 1.20e-04h 13
Scaling factors are invalid - setting them all to 1.
Scaling factors are invalid - setting them all to 1.
Scaling factors are invalid - setting them all to 1.
Scaling factors are invalid - setting them all to 1.
Scaling factors are invalid - setting them all to 1.
Scaling factors are invalid - setting them all to 1.
Scaling factors are invalid - setting them all to 1.
Scaling factors are invalid - setting them all to 1.
Scaling factors are invalid - setting them all to 1.
Scaling factors are invalid - setting them all to 1.
Scaling factors are invalid - setting them all to 1.
Scaling factors are invalid - setting them all to 1.
Scaling factors are invalid - setting them all to 1.
Scaling factors are invalid - setting them all to 1.
Scaling factors are invalid - setting them all to 1.
Scaling factors are invalid - setting them all to 1.
Scaling factors are invalid - setting them all to 1.
Scaling factors are invalid - setting them all to 1.
Scaling factors are invalid - setting them all to 1.
Scaling factors are invalid - setting them all to 1.
Scaling factors are invalid - setting them all to 1.
Scaling factors are invalid - setting them all to 1.
Scaling factors are invalid - setting them all to 1.
Scaling factors are invalid - setting them all to 1.
Scaling factors are invalid - setting them all to 1.
Scaling factors are invalid - setting them all to 1.
Scaling factors are invalid - setting them all to 1.
Scaling factors are invalid - setting them all to 1.
Scaling factors are invalid - setting them all to 1.
WARNING: Problem in step computation; switching to emergency mode.
iter    objective    inf_pr   inf_du lg(mu)  ||d||  lg(rg) alpha_du alpha_pr  ls
 230r 1.0101391e+02 7.48e-01 8.61e+14  -0.1 8.79e+00  20.0 0.00e+00 0.00e+00R  1
Scaling factors are invalid - setting them all to 1.
Scaling factors are invalid - setting them all to 1.
Scaling factors are invalid - setting them all to 1.
Scaling factors are invalid - setting them all to 1.
Scaling factors are invalid - setting them all to 1.
Scaling factors are invalid - setting them all to 1.
Scaling factors are invalid - setting them all to 1.
Scaling factors are invalid - setting them all to 1.
Scaling factors are invalid - setting them all to 1.
Scaling factors are invalid - setting them all to 1.
Scaling factors are invalid - setting them all to 1.
Scaling factors are invalid - setting them all to 1.
Scaling factors are invalid - setting them all to 1.
Scaling factors are invalid - setting them all to 1.
WARNING: Problem in step computation; switching to emergency mode.
Restoration phase is called at point that is almost feasible,
  with constraint violation 0.000000e+00. Abort.
Restoration phase in the restoration phase failed.

Number of Iterations....: 230

                                   (scaled)                 (unscaled)
Objective...............:   1.0101390506822749e+02    1.0101390506822749e+02
Dual infeasibility......:   8.6054244689658250e+14    8.6054244689658250e+14
Constraint violation....:   7.4792494669162290e-01    7.4792494669162290e-01
Complementarity.........:   1.0326593506750168e+00    1.0326593506750168e+00
Overall NLP error.......:   5.6595868697830488e+14    8.6054244689658250e+14


Number of objective function evaluations             = 924
Number of objective gradient evaluations             = 25
Number of equality constraint evaluations            = 924
Number of inequality constraint evaluations          = 0
Number of equality constraint Jacobian evaluations   = 236
Number of inequality constraint Jacobian evaluations = 0
Number of Lagrangian Hessian evaluations             = 231
Total CPU secs in IPOPT (w/o function evaluations)   =      0.654
Total CPU secs in NLP function evaluations           =      8.892

EXIT: Restoration Failed!
